144
1000000
247131
195709
239596
110185
407422
36132
229
541026
259825
495112
475888
337592
192929
669973
176751
603817
324791
41206
490738
50161
404557
198819
403938
714908
596062
464131
330544
382
285092
118078
716142
87739
64998
588102
544293
25727
220904
220368
507295
204903
90967
169086
89635
530396
70951
278956
97481
211465
276842
504679
730634
13256
285659
356793
377684
195063
276339
120314
314993
288032
245570
614187
213657
12001
15034
717436
306919
173201
10095
194303
10677
523534
322717
469604
375007
369420
512224
342839
534568
200433
273787
675209
132952
167982
186157
736158
211103
35081
646229
245827
8501
63753
550834
377130
429474
716086
28483
216823
412667
524293
29982
263842
150962
271507
147000
53363
517197
262919
150293
341905
403370
371683
267392
137561
98359
353771
411468
131120
331714
261235
647301
438311
215268
493731
359282
218301
535869
40073
475316
479161
6447
133565
476336
367426
554072
517275
657161
222982
233567
351456
583442
523664
332450
506526
